c THIS FORMULA IS GENERATED BY CNF
c 
c atomics
c X_PI <= 48.12_2_s:1
c X_PI <= 54.92_1_s:2
c X_PI <= 48.12_1_p:3
c X_PI <= 54.92_1_n:4
c X_PI <= 48.12_1_s:5
c X_PI <= 54.92_2_p:6
c C_1_2:7
c X_PI <= 42.09_2_n:8
c C_1_1:9
c X_PI <= 54.92_2_n:10
c C_2_1:11
c X_PI <= 54.92_1_p:12
c X_PI <= 54.92_2_s:13
c X_PI <= 42.09_1_p:14
c X_PI <= 48.12_2_p:15
c X_PI <= 42.09_2_p:16
c X_PI <= 48.12_2_n:17
c C_2_2:18
c X_PI <= 42.09_2_s:19
c X_PI <= 48.12_1_n:20
c X_PI <= 42.09_1_n:21
c X_PI <= 42.09_1_s:22
c end atomics
p cnf 22 183
14 -14 -14 0
14 -14 -21 0
14 -14 22 0
14 21 -14 0
14 21 -21 0
14 21 22 0
14 -22 -14 0
14 -22 -21 0
14 -22 22 0
-21 -14 -14 0
-21 -14 -21 0
-21 -14 22 0
-21 21 -14 0
-21 21 -21 0
-21 21 22 0
-21 -22 -14 0
-21 -22 -21 0
-21 -22 22 0
-22 -14 -14 0
-22 -14 -21 0
-22 -14 22 0
-22 21 -14 0
-22 21 -21 0
-22 21 22 0
-22 -22 -14 0
-22 -22 -21 0
-22 -22 22 0
3 -3 -3 0
3 -3 -20 0
3 -3 5 0
3 20 -3 0
3 20 -20 0
3 20 5 0
3 -5 -3 0
3 -5 -20 0
3 -5 5 0
-20 -3 -3 0
-20 -3 -20 0
-20 -3 5 0
-20 20 -3 0
-20 20 -20 0
-20 20 5 0
-20 -5 -3 0
-20 -5 -20 0
-20 -5 5 0
-5 -3 -3 0
-5 -3 -20 0
-5 -3 5 0
-5 20 -3 0
-5 20 -20 0
-5 20 5 0
-5 -5 -3 0
-5 -5 -20 0
-5 -5 5 0
12 -12 -12 0
12 -12 -4 0
12 -12 2 0
12 4 -12 0
12 4 -4 0
12 4 2 0
12 -2 -12 0
12 -2 -4 0
12 -2 2 0
-4 -12 -12 0
-4 -12 -4 0
-4 -12 2 0
-4 4 -12 0
-4 4 -4 0
-4 4 2 0
-4 -2 -12 0
-4 -2 -4 0
-4 -2 2 0
-2 -12 -12 0
-2 -12 -4 0
-2 -12 2 0
-2 4 -12 0
-2 4 -4 0
-2 4 2 0
-2 -2 -12 0
-2 -2 -4 0
-2 -2 2 0
16 -16 -16 0
16 -16 -8 0
16 -16 19 0
16 8 -16 0
16 8 -8 0
16 8 19 0
16 -19 -16 0
16 -19 -8 0
16 -19 19 0
-8 -16 -16 0
-8 -16 -8 0
-8 -16 19 0
-8 8 -16 0
-8 8 -8 0
-8 8 19 0
-8 -19 -16 0
-8 -19 -8 0
-8 -19 19 0
-19 -16 -16 0
-19 -16 -8 0
-19 -16 19 0
-19 8 -16 0
-19 8 -8 0
-19 8 19 0
-19 -19 -16 0
-19 -19 -8 0
-19 -19 19 0
15 -15 -15 0
15 -15 -17 0
15 -15 1 0
15 17 -15 0
15 17 -17 0
15 17 1 0
15 -1 -15 0
15 -1 -17 0
15 -1 1 0
-17 -15 -15 0
-17 -15 -17 0
-17 -15 1 0
-17 17 -15 0
-17 17 -17 0
-17 17 1 0
-17 -1 -15 0
-17 -1 -17 0
-17 -1 1 0
-1 -15 -15 0
-1 -15 -17 0
-1 -15 1 0
-1 17 -15 0
-1 17 -17 0
-1 17 1 0
-1 -1 -15 0
-1 -1 -17 0
-1 -1 1 0
6 -6 -6 0
6 -6 -10 0
6 -6 13 0
6 10 -6 0
6 10 -10 0
6 10 13 0
6 -13 -6 0
6 -13 -10 0
6 -13 13 0
-10 -6 -6 0
-10 -6 -10 0
-10 -6 13 0
-10 10 -6 0
-10 10 -10 0
-10 10 13 0
-10 -13 -6 0
-10 -13 -10 0
-10 -13 13 0
-13 -6 -6 0
-13 -6 -10 0
-13 -6 13 0
-13 10 -6 0
-13 10 -10 0
-13 10 13 0
-13 -13 -6 0
-13 -13 -10 0
-13 -13 13 0
-22 -5 -2 0
-19 -1 -13 0
21 20 4 0
8 17 10 0
14 3 4 0
16 15 10 0
21 3 12 0
8 15 6 0
-14 -9 0
-3 -9 0
-12 -9 0
-16 -11 0
-15 -11 0
-6 -11 0
-14 -7 0
-20 -7 0
-12 -7 0
-16 -18 0
-17 -18 0
-6 -18 0
9 11 0
7 18 0
